60	100	100	100
2	3	3
2	1	8
4	5	9
5	1	1
7	2	4
4	8	3
6	5	8
8	9	5
4	8	7
1	2	7
8	8	1
5	4	5
5	9	4
4	4	5
4	3	6
1	3	7
7	9	4
8	1	6
6	1	4
5	7	3
4	2	3
1	6	7
7	1	8
3	5	3
8	2	6
1	9	5
9	2	6
5	3	7
4	4	4
5	4	2
1	7	6
9	3	3
3	1	2
3	8	6
7	1	3
8	3	4
5	5	5
5	8	1
4	7	4
5	7	8
1	1	2
7	7	9
1	9	8
9	2	5
1	7	6
1	5	3
5	5	1
2	3	5
3	8	9
9	1	8
8	6	5
8	6	9
9	4	4
9	6	7
5	9	7
8	5	3
2	8	8
8	8	5
4	7	2
5	1	6
